p cnf 1064 2694
-1 -2 0
1 2 0
-3 -4 0
3 4 0
-5 -6 0
5 6 0
-7 -8 0
7 8 0
-9 -10 0
9 10 0
-11 -12 0
11 12 0
-13 -14 0
13 14 0
-15 -16 0
15 16 0
-17 -18 0
17 18 0
-19 -20 0
19 20 0
-21 -22 0
21 22 0
-23 -24 0
23 24 0
8 -25 0
1 -25 0
-8 -1 25 0
1 -26 0
14 -26 0
-1 -14 26 0
-27 -4 0
27 4 0
1 -28 0
20 -28 0
-1 -20 28 0
10 -29 0
3 -29 0
-10 -3 29 0
-30 -6 0
30 6 0
16 -31 0
3 -31 0
-16 -3 31 0
22 -32 0
3 -32 0
-22 -3 32 0
-33 -8 0
33 8 0
5 -34 0
12 -34 0
-5 -12 34 0
5 -35 0
18 -35 0
-5 -18 35 0
-36 -10 0
36 10 0
5 -37 0
24 -37 0
-5 -24 37 0
8 -38 0
7 -38 0
-8 -7 38 0
-39 -12 0
39 12 0
7 -40 0
14 -40 0
-7 -14 40 0
7 -41 0
20 -41 0
-7 -20 41 0
-42 -14 0
42 14 0
4 -43 0
9 -43 0
-4 -9 43 0
10 -44 0
9 -44 0
-10 -9 44 0
-45 -16 0
45 16 0
16 -46 0
9 -46 0
-16 -9 46 0
22 -47 0
9 -47 0
-22 -9 47 0
-48 -18 0
48 18 0
11 -49 0
6 -49 0
-11 -6 49 0
11 -50 0
12 -50 0
-11 -12 50 0
-51 -20 0
51 20 0
11 -52 0
18 -52 0
-11 -18 52 0
11 -53 0
24 -53 0
-11 -24 53 0
-54 -22 0
54 22 0
13 -55 0
14 -55 0
-13 -14 55 0
13 -56 0
20 -56 0
-13 -20 56 0
-57 -24 0
57 24 0
15 -58 0
4 -58 0
-15 -4 58 0
15 -59 0
10 -59 0
-15 -10 59 0
10 -60 0
27 -60 0
-10 -27 60 0
15 -61 0
16 -61 0
-15 -16 61 0
22 -62 0
15 -62 0
-22 -15 62 0
30 -63 0
12 -63 0
-30 -12 63 0
17 -64 0
6 -64 0
-17 -6 64 0
17 -65 0
12 -65 0
-17 -12 65 0
2 -66 0
33 -66 0
-2 -33 66 0
17 -67 0
18 -67 0
-17 -18 67 0
17 -68 0
24 -68 0
-17 -24 68 0
4 -69 0
36 -69 0
-4 -36 69 0
19 -70 0
14 -70 0
-19 -14 70 0
19 -71 0
20 -71 0
-19 -20 71 0
39 -72 0
6 -72 0
-39 -6 72 0
16 -73 0
21 -73 0
-16 -21 73 0
4 -74 0
21 -74 0
-4 -21 74 0
-75 -60 0
75 60 0
10 -76 0
21 -76 0
-10 -21 76 0
22 -77 0
21 -77 0
-22 -21 77 0
-78 -63 0
78 63 0
18 -79 0
23 -79 0
-18 -23 79 0
6 -80 0
23 -80 0
-6 -23 80 0
-81 -69 0
81 69 0
12 -82 0
23 -82 0
-12 -23 82 0
23 -83 0
24 -83 0
-23 -24 83 0
-84 -72 0
84 72 0
-85 -29 0
85 29 0
-86 -31 0
86 31 0
75 -87 0
81 -87 0
-75 -81 87 0
-88 -32 0
88 32 0
-89 -34 0
89 34 0
78 -90 0
84 -90 0
-78 -84 90 0
-91 -35 0
91 35 0
-92 -37 0
92 37 0
90 -93 0
69 -93 0
-90 -69 93 0
-94 -43 0
94 43 0
-95 -44 0
95 44 0
90 -96 0
66 -96 0
-90 -66 96 0
-97 -46 0
97 46 0
-98 -47 0
98 47 0
-99 -93 0
99 93 0
-100 -49 0
100 49 0
-101 -50 0
101 50 0
96 -102 0
87 -102 0
-96 -87 102 0
-103 -52 0
103 52 0
-104 -53 0
104 53 0
99 -105 0
84 -105 0
-99 -84 105 0
-106 -58 0
106 58 0
-107 -59 0
107 59 0
-108 -102 0
108 102 0
-109 -61 0
109 61 0
-110 -62 0
110 62 0
108 -111 0
105 -111 0
-108 -105 111 0
-112 -64 0
112 64 0
-113 -65 0
113 65 0
-114 -111 0
114 111 0
-115 -67 0
115 67 0
-116 -68 0
116 68 0
2 -117 0
111 -117 0
-2 -111 117 0
-118 -73 0
118 73 0
-119 -74 0
119 74 0
4 -120 0
111 -120 0
-4 -111 120 0
-121 -76 0
121 76 0
-122 -77 0
122 77 0
6 -123 0
111 -123 0
-6 -111 123 0
-124 -79 0
124 79 0
-125 -80 0
125 80 0
8 -126 0
111 -126 0
-8 -111 126 0
-127 -82 0
127 82 0
-128 -83 0
128 83 0
10 -129 0
111 -129 0
-10 -111 129 0
85 -130 0
94 -130 0
-85 -94 130 0
89 -131 0
100 -131 0
-89 -100 131 0
12 -132 0
111 -132 0
-12 -111 132 0
86 -133 0
106 -133 0
-86 -106 133 0
97 -134 0
107 -134 0
-97 -107 134 0
8 -135 0
114 -135 0
-8 -114 135 0
91 -136 0
112 -136 0
-91 -112 136 0
103 -137 0
113 -137 0
-103 -113 137 0
10 -138 0
114 -138 0
-10 -114 138 0
118 -139 0
110 -139 0
-118 -110 139 0
119 -140 0
88 -140 0
-119 -88 140 0
114 -141 0
12 -141 0
-114 -12 141 0
121 -142 0
98 -142 0
-121 -98 142 0
124 -143 0
116 -143 0
-124 -116 143 0
2 -144 0
114 -144 0
-2 -114 144 0
125 -145 0
92 -145 0
-125 -92 145 0
104 -146 0
127 -146 0
-104 -127 146 0
4 -147 0
114 -147 0
-4 -114 147 0
131 -148 0
29 -148 0
-131 -29 148 0
131 -149 0
25 -149 0
-131 -25 149 0
114 -150 0
6 -150 0
-114 -6 150 0
101 -151 0
44 -151 0
-101 -44 151 0
101 -152 0
38 -152 0
-101 -38 152 0
-153 -117 0
153 117 0
31 -154 0
136 -154 0
-31 -136 154 0
26 -155 0
136 -155 0
-26 -136 155 0
-156 -120 0
156 120 0
46 -157 0
137 -157 0
-46 -137 157 0
40 -158 0
137 -158 0
-40 -137 158 0
-159 -123 0
159 123 0
115 -160 0
61 -160 0
-115 -61 160 0
115 -161 0
55 -161 0
-115 -55 161 0
-162 -126 0
162 126 0
73 -163 0
143 -163 0
-73 -143 163 0
70 -164 0
143 -164 0
-70 -143 164 0
-165 -129 0
165 129 0
32 -166 0
145 -166 0
-32 -145 166 0
28 -167 0
145 -167 0
-28 -145 167 0
-168 -132 0
168 132 0
47 -169 0
146 -169 0
-47 -146 169 0
41 -170 0
146 -170 0
-41 -146 170 0
-171 -135 0
171 135 0
62 -172 0
143 -172 0
-62 -143 172 0
56 -173 0
143 -173 0
-56 -143 173 0
-174 -138 0
174 138 0
128 -175 0
77 -175 0
-128 -77 175 0
128 -176 0
71 -176 0
-128 -71 176 0
-177 -141 0
177 141 0
-178 -148 0
178 148 0
149 -179 0
130 -179 0
-149 -130 179 0
-180 -144 0
180 144 0
-181 -151 0
181 151 0
152 -182 0
95 -182 0
-152 -95 182 0
-183 -147 0
183 147 0
-184 -154 0
184 154 0
133 -185 0
155 -185 0
-133 -155 185 0
-186 -150 0
186 150 0
-187 -157 0
187 157 0
134 -188 0
158 -188 0
-134 -158 188 0
153 -189 0
171 -189 0
-153 -171 189 0
-190 -160 0
190 160 0
109 -191 0
161 -191 0
-109 -161 191 0
156 -192 0
174 -192 0
-156 -174 192 0
-193 -163 0
193 163 0
164 -194 0
139 -194 0
-164 -139 194 0
177 -195 0
159 -195 0
-177 -159 195 0
-196 -166 0
196 166 0
140 -197 0
167 -197 0
-140 -167 197 0
162 -198 0
180 -198 0
-162 -180 198 0
-199 -169 0
199 169 0
142 -200 0
170 -200 0
-142 -170 200 0
-201 -172 0
201 172 0
165 -202 0
183 -202 0
-165 -183 202 0
139 -203 0
173 -203 0
-139 -173 203 0
-204 -175 0
204 175 0
168 -205 0
186 -205 0
-168 -186 205 0
176 -206 0
122 -206 0
-176 -122 206 0
89 -207 0
178 -207 0
-89 -178 207 0
-208 -189 0
208 189 0
-209 -179 0
209 179 0
181 -210 0
101 -210 0
-181 -101 210 0
-211 -192 0
211 192 0
-212 -182 0
212 182 0
91 -213 0
184 -213 0
-91 -184 213 0
-214 -195 0
214 195 0
-215 -185 0
215 185 0
103 -216 0
187 -216 0
-103 -187 216 0
-217 -198 0
217 198 0
-218 -188 0
218 188 0
115 -219 0
190 -219 0
-115 -190 219 0
-220 -202 0
220 202 0
-221 -191 0
221 191 0
124 -222 0
193 -222 0
-124 -193 222 0
16 -223 0
202 -223 0
-16 -202 223 0
-224 -194 0
224 194 0
92 -225 0
196 -225 0
-92 -196 225 0
-226 -205 0
226 205 0
-227 -197 0
227 197 0
199 -228 0
104 -228 0
-199 -104 228 0
18 -229 0
205 -229 0
-18 -205 229 0
-230 -200 0
230 200 0
201 -231 0
116 -231 0
-201 -116 231 0
217 -232 0
42 -232 0
-217 -42 232 0
-233 -203 0
233 203 0
204 -234 0
128 -234 0
-204 -128 234 0
45 -235 0
220 -235 0
-45 -220 235 0
-236 -206 0
236 206 0
207 -237 0
209 -237 0
-207 -209 237 0
-238 -223 0
238 223 0
210 -239 0
212 -239 0
-210 -212 239 0
215 -240 0
213 -240 0
-215 -213 240 0
48 -241 0
226 -241 0
-48 -226 241 0
216 -242 0
218 -242 0
-216 -218 242 0
221 -243 0
219 -243 0
-221 -219 243 0
-244 -229 0
244 229 0
224 -245 0
222 -245 0
-224 -222 245 0
225 -246 0
227 -246 0
-225 -227 246 0
-247 -235 0
247 235 0
228 -248 0
230 -248 0
-228 -230 248 0
231 -249 0
233 -249 0
-231 -233 249 0
-250 -241 0
250 241 0
236 -251 0
234 -251 0
-236 -234 251 0
-252 -237 0
252 237 0
238 -253 0
247 -253 0
-238 -247 253 0
-254 -239 0
254 239 0
-255 -240 0
255 240 0
244 -256 0
250 -256 0
-244 -250 256 0
-257 -242 0
257 242 0
-258 -243 0
258 243 0
256 -259 0
235 -259 0
-256 -235 259 0
-260 -245 0
260 245 0
-261 -246 0
261 246 0
256 -262 0
232 -262 0
-256 -232 262 0
-263 -248 0
263 248 0
-264 -249 0
264 249 0
-265 -259 0
265 259 0
-266 -251 0
266 251 0
252 -267 0
254 -267 0
-252 -254 267 0
262 -268 0
253 -268 0
-262 -253 268 0
-269 -267 0
269 267 0
269 -270 0
252 -270 0
-269 -252 270 0
250 -271 0
265 -271 0
-250 -265 271 0
-272 -270 0
272 270 0
269 -273 0
272 -273 0
-269 -272 273 0
-274 -268 0
274 268 0
273 -275 0
255 -275 0
-273 -255 275 0
-276 -273 0
276 273 0
274 -277 0
271 -277 0
-274 -271 277 0
-278 -275 0
278 275 0
278 -279 0
276 -279 0
-278 -276 279 0
-280 -277 0
280 277 0
279 -281 0
278 -281 0
-279 -278 281 0
281 -282 0
257 -282 0
-281 -257 282 0
217 -283 0
277 -283 0
-217 -277 283 0
-284 -282 0
284 282 0
279 -285 0
284 -285 0
-279 -284 285 0
220 -286 0
277 -286 0
-220 -277 286 0
284 -287 0
275 -287 0
-284 -275 287 0
-288 -285 0
288 285 0
226 -289 0
277 -289 0
-226 -277 289 0
-290 -287 0
290 287 0
284 -291 0
290 -291 0
-284 -290 291 0
277 -292 0
14 -292 0
-277 -14 292 0
-293 -291 0
293 291 0
293 -294 0
288 -294 0
-293 -288 294 0
16 -295 0
277 -295 0
-16 -277 295 0
294 -296 0
258 -296 0
-294 -258 296 0
-297 -296 0
297 296 0
18 -298 0
277 -298 0
-18 -277 298 0
297 -299 0
285 -299 0
-297 -285 299 0
293 -300 0
297 -300 0
-293 -297 300 0
280 -301 0
14 -301 0
-280 -14 301 0
-302 -300 0
302 300 0
297 -303 0
302 -303 0
-297 -302 303 0
16 -304 0
280 -304 0
-16 -280 304 0
-305 -303 0
305 303 0
305 -306 0
299 -306 0
-305 -299 306 0
280 -307 0
18 -307 0
-280 -18 307 0
306 -308 0
260 -308 0
-306 -260 308 0
-309 -308 0
309 308 0
217 -310 0
280 -310 0
-217 -280 310 0
299 -311 0
309 -311 0
-299 -309 311 0
305 -312 0
309 -312 0
-305 -309 312 0
280 -313 0
220 -313 0
-280 -220 313 0
-314 -311 0
314 311 0
-315 -312 0
315 312 0
280 -316 0
226 -316 0
-280 -226 316 0
315 -317 0
309 -317 0
-315 -309 317 0
314 -318 0
317 -318 0
-314 -317 318 0
-319 -283 0
319 283 0
-320 -317 0
320 317 0
318 -321 0
261 -321 0
-318 -261 321 0
-322 -286 0
322 286 0
-323 -321 0
323 321 0
311 -324 0
323 -324 0
-311 -323 324 0
-325 -289 0
325 289 0
320 -326 0
323 -326 0
-320 -323 326 0
-327 -324 0
327 324 0
-328 -292 0
328 292 0
-329 -326 0
329 326 0
327 -330 0
323 -330 0
-327 -323 330 0
-331 -295 0
331 295 0
323 -332 0
329 -332 0
-323 -329 332 0
-333 -330 0
333 330 0
-334 -298 0
334 298 0
-335 -332 0
335 332 0
333 -336 0
332 -336 0
-333 -332 336 0
-337 -301 0
337 301 0
336 -338 0
263 -338 0
-336 -263 338 0
-339 -338 0
339 338 0
-340 -304 0
340 304 0
339 -341 0
333 -341 0
-339 -333 341 0
335 -342 0
339 -342 0
-335 -339 342 0
-343 -307 0
343 307 0
-344 -341 0
344 341 0
-345 -342 0
345 342 0
-346 -310 0
346 310 0
339 -347 0
344 -347 0
-339 -344 347 0
339 -348 0
345 -348 0
-339 -345 348 0
-349 -313 0
349 313 0
-350 -347 0
350 347 0
-351 -348 0
351 348 0
-352 -316 0
352 316 0
351 -353 0
347 -353 0
-351 -347 353 0
264 -354 0
353 -354 0
-264 -353 354 0
319 -355 0
337 -355 0
-319 -337 355 0
-356 -354 0
356 354 0
350 -357 0
356 -357 0
-350 -356 357 0
322 -358 0
340 -358 0
-322 -340 358 0
351 -359 0
356 -359 0
-351 -356 359 0
-360 -357 0
360 357 0
343 -361 0
325 -361 0
-343 -325 361 0
-362 -359 0
362 359 0
360 -363 0
356 -363 0
-360 -356 363 0
328 -364 0
346 -364 0
-328 -346 364 0
362 -365 0
356 -365 0
-362 -356 365 0
-366 -363 0
366 363 0
349 -367 0
331 -367 0
-349 -331 367 0
-368 -365 0
368 365 0
366 -369 0
368 -369 0
-366 -368 369 0
352 -370 0
334 -370 0
-352 -334 370 0
369 -371 0
266 -371 0
-369 -266 371 0
-372 -371 0
372 371 0
355 -373 0
208 -373 0
-355 -208 373 0
372 -374 0
366 -374 0
-372 -366 374 0
372 -375 0
368 -375 0
-372 -368 375 0
-376 -355 0
376 355 0
-377 -374 0
377 374 0
-378 -375 0
378 375 0
211 -379 0
358 -379 0
-211 -358 379 0
372 -380 0
377 -380 0
-372 -377 380 0
372 -381 0
378 -381 0
-372 -378 381 0
-382 -358 0
382 358 0
-383 -380 0
383 380 0
-384 -381 0
384 381 0
361 -385 0
214 -385 0
-361 -214 385 0
383 -386 0
381 -386 0
-383 -381 386 0
384 -387 0
380 -387 0
-384 -380 387 0
-388 -361 0
388 361 0
383 -389 0
384 -389 0
-383 -384 389 0
8 -390 0
386 -390 0
-8 -386 390 0
-391 -364 0
391 364 0
-392 -386 0
392 386 0
386 -393 0
10 -393 0
-386 -10 393 0
-394 -367 0
394 367 0
386 -395 0
12 -395 0
-386 -12 395 0
2 -396 0
386 -396 0
-2 -386 396 0
367 -397 0
22 -397 0
-367 -22 397 0
386 -398 0
4 -398 0
-386 -4 398 0
386 -399 0
6 -399 0
-386 -6 399 0
-400 -370 0
400 370 0
387 -401 0
14 -401 0
-387 -14 401 0
-402 -387 0
402 387 0
370 -403 0
24 -403 0
-370 -24 403 0
16 -404 0
387 -404 0
-16 -387 404 0
18 -405 0
387 -405 0
-18 -387 405 0
382 -406 0
192 -406 0
-382 -192 406 0
-407 -389 0
407 389 0
389 -408 0
20 -408 0
-389 -20 408 0
-409 -379 0
409 379 0
22 -410 0
389 -410 0
-22 -389 410 0
389 -411 0
24 -411 0
-389 -24 411 0
-412 -385 0
412 385 0
-413 -390 0
413 390 0
2 -414 0
392 -414 0
-2 -392 414 0
4 -415 0
392 -415 0
-4 -392 415 0
195 -416 0
388 -416 0
-195 -388 416 0
392 -417 0
6 -417 0
-392 -6 417 0
8 -418 0
392 -418 0
-8 -392 418 0
391 -419 0
51 -419 0
-391 -51 419 0
10 -420 0
392 -420 0
-10 -392 420 0
392 -421 0
12 -421 0
-392 -12 421 0
394 -422 0
54 -422 0
-394 -54 422 0
-423 -393 0
423 393 0
-424 -395 0
424 395 0
-425 -397 0
425 397 0
-426 -396 0
426 396 0
-427 -398 0
427 398 0
400 -428 0
57 -428 0
-400 -57 428 0
-429 -399 0
429 399 0
-430 -401 0
430 401 0
-431 -403 0
431 403 0
402 -432 0
14 -432 0
-402 -14 432 0
16 -433 0
402 -433 0
-16 -402 433 0
-434 -406 0
434 406 0
18 -435 0
402 -435 0
-18 -402 435 0
-436 -404 0
436 404 0
-437 -416 0
437 416 0
-438 -405 0
438 405 0
20 -439 0
407 -439 0
-20 -407 439 0
-440 -422 0
440 422 0
22 -441 0
407 -441 0
-22 -407 441 0
407 -442 0
24 -442 0
-407 -24 442 0
-443 -428 0
443 428 0
-444 -408 0
444 408 0
-445 -410 0
445 410 0
434 -446 0
409 -446 0
-434 -409 446 0
-447 -411 0
447 411 0
-448 -414 0
448 414 0
437 -449 0
412 -449 0
-437 -412 449 0
-450 -415 0
450 415 0
-451 -417 0
451 417 0
425 -452 0
440 -452 0
-425 -440 452 0
-453 -418 0
453 418 0
-454 -420 0
454 420 0
443 -455 0
431 -455 0
-443 -431 455 0
-456 -421 0
456 421 0
-457 -432 0
457 432 0
449 -458 0
379 -458 0
-449 -379 458 0
-459 -433 0
459 433 0
-460 -435 0
460 435 0
373 -461 0
449 -461 0
-373 -449 461 0
-462 -439 0
462 439 0
-463 -441 0
463 441 0
455 -464 0
422 -464 0
-455 -422 464 0
-465 -442 0
465 442 0
413 -466 0
448 -466 0
-413 -448 466 0
455 -467 0
419 -467 0
-455 -419 467 0
450 -468 0
423 -468 0
-450 -423 468 0
451 -469 0
424 -469 0
-451 -424 469 0
-470 -458 0
470 458 0
426 -471 0
453 -471 0
-426 -453 471 0
454 -472 0
427 -472 0
-454 -427 472 0
461 -473 0
446 -473 0
-461 -446 473 0
456 -474 0
429 -474 0
-456 -429 474 0
-475 -466 0
475 466 0
-476 -464 0
476 464 0
-477 -468 0
477 468 0
-478 -469 0
478 469 0
467 -479 0
452 -479 0
-467 -452 479 0
-480 -471 0
480 471 0
-481 -472 0
481 472 0
470 -482 0
412 -482 0
-470 -412 482 0
-483 -474 0
483 474 0
475 -484 0
402 -484 0
-475 -402 484 0
-485 -473 0
485 473 0
475 -486 0
387 -486 0
-475 -387 486 0
402 -487 0
477 -487 0
-402 -477 487 0
443 -488 0
476 -488 0
-443 -476 488 0
387 -489 0
477 -489 0
-387 -477 489 0
402 -490 0
478 -490 0
-402 -478 490 0
-491 -479 0
491 479 0
387 -492 0
478 -492 0
-387 -478 492 0
387 -493 0
480 -493 0
-387 -480 493 0
482 -494 0
485 -494 0
-482 -485 494 0
402 -495 0
480 -495 0
-402 -480 495 0
387 -496 0
481 -496 0
-387 -481 496 0
491 -497 0
488 -497 0
-491 -488 497 0
402 -498 0
481 -498 0
-402 -481 498 0
387 -499 0
483 -499 0
-387 -483 499 0
-500 -494 0
500 494 0
402 -501 0
483 -501 0
-402 -483 501 0
-502 -484 0
502 484 0
208 -503 0
494 -503 0
-208 -494 503 0
-504 -486 0
504 486 0
-505 -487 0
505 487 0
211 -506 0
494 -506 0
-211 -494 506 0
-507 -489 0
507 489 0
-508 -490 0
508 490 0
494 -509 0
214 -509 0
-494 -214 509 0
-510 -492 0
510 492 0
-511 -493 0
511 493 0
376 -512 0
494 -512 0
-376 -494 512 0
-513 -495 0
513 495 0
-514 -496 0
514 496 0
382 -515 0
494 -515 0
-382 -494 515 0
-516 -498 0
516 498 0
-517 -499 0
517 499 0
494 -518 0
388 -518 0
-494 -388 518 0
-519 -501 0
519 501 0
502 -520 0
430 -520 0
-502 -430 520 0
-521 -497 0
521 497 0
504 -522 0
457 -522 0
-504 -457 522 0
436 -523 0
505 -523 0
-436 -505 523 0
391 -524 0
497 -524 0
-391 -497 524 0
459 -525 0
507 -525 0
-459 -507 525 0
438 -526 0
508 -526 0
-438 -508 526 0
394 -527 0
497 -527 0
-394 -497 527 0
510 -528 0
460 -528 0
-510 -460 528 0
511 -529 0
513 -529 0
-511 -513 529 0
497 -530 0
400 -530 0
-497 -400 530 0
516 -531 0
514 -531 0
-516 -514 531 0
519 -532 0
517 -532 0
-519 -517 532 0
497 -533 0
20 -533 0
-497 -20 533 0
-534 -520 0
534 520 0
-535 -522 0
535 522 0
22 -536 0
497 -536 0
-22 -497 536 0
-537 -523 0
537 523 0
-538 -525 0
538 525 0
497 -539 0
24 -539 0
-497 -24 539 0
-540 -526 0
540 526 0
-541 -528 0
541 528 0
500 -542 0
376 -542 0
-500 -376 542 0
-543 -529 0
543 529 0
-544 -531 0
544 531 0
382 -545 0
500 -545 0
-382 -500 545 0
-546 -532 0
546 532 0
534 -547 0
389 -547 0
-534 -389 547 0
500 -548 0
388 -548 0
-500 -388 548 0
534 -549 0
407 -549 0
-534 -407 549 0
535 -550 0
407 -550 0
-535 -407 550 0
500 -551 0
208 -551 0
-500 -208 551 0
389 -552 0
535 -552 0
-389 -535 552 0
389 -553 0
537 -553 0
-389 -537 553 0
500 -554 0
211 -554 0
-500 -211 554 0
537 -555 0
407 -555 0
-537 -407 555 0
538 -556 0
407 -556 0
-538 -407 556 0
500 -557 0
214 -557 0
-500 -214 557 0
389 -558 0
538 -558 0
-389 -538 558 0
540 -559 0
389 -559 0
-540 -389 559 0
-560 -503 0
560 503 0
540 -561 0
407 -561 0
-540 -407 561 0
541 -562 0
407 -562 0
-541 -407 562 0
-563 -506 0
563 506 0
541 -564 0
389 -564 0
-541 -389 564 0
543 -565 0
389 -565 0
-543 -389 565 0
-566 -509 0
566 509 0
543 -567 0
407 -567 0
-543 -407 567 0
544 -568 0
389 -568 0
-544 -389 568 0
-569 -512 0
569 512 0
544 -570 0
407 -570 0
-544 -407 570 0
546 -571 0
389 -571 0
-546 -389 571 0
-572 -515 0
572 515 0
546 -573 0
407 -573 0
-546 -407 573 0
-574 -547 0
574 547 0
-575 -518 0
575 518 0
-576 -549 0
576 549 0
-577 -550 0
577 550 0
521 -578 0
20 -578 0
-521 -20 578 0
-579 -552 0
579 552 0
-580 -553 0
580 553 0
22 -581 0
521 -581 0
-22 -521 581 0
-582 -555 0
582 555 0
-583 -556 0
583 556 0
521 -584 0
24 -584 0
-521 -24 584 0
-585 -558 0
585 558 0
-586 -559 0
586 559 0
391 -587 0
521 -587 0
-391 -521 587 0
-588 -561 0
588 561 0
-589 -562 0
589 562 0
394 -590 0
521 -590 0
-394 -521 590 0
-591 -564 0
591 564 0
-592 -565 0
592 565 0
400 -593 0
521 -593 0
-400 -521 593 0
-594 -567 0
594 567 0
-595 -568 0
595 568 0
-596 -524 0
596 524 0
-597 -570 0
597 570 0
-598 -571 0
598 571 0
-599 -527 0
599 527 0
-600 -573 0
600 573 0
574 -601 0
462 -601 0
-574 -462 601 0
-602 -530 0
602 530 0
444 -603 0
576 -603 0
-444 -576 603 0
463 -604 0
580 -604 0
-463 -580 604 0
-605 -533 0
605 533 0
445 -606 0
582 -606 0
-445 -582 606 0
465 -607 0
586 -607 0
-465 -586 607 0
-608 -536 0
608 536 0
447 -609 0
588 -609 0
-447 -588 609 0
577 -610 0
592 -610 0
-577 -592 610 0
-611 -539 0
611 539 0
579 -612 0
594 -612 0
-579 -594 612 0
583 -613 0
595 -613 0
-583 -595 613 0
-614 -542 0
614 542 0
597 -615 0
585 -615 0
-597 -585 615 0
598 -616 0
589 -616 0
-598 -589 616 0
-617 -545 0
617 545 0
591 -618 0
600 -618 0
-591 -600 618 0
-619 -601 0
619 601 0
-620 -548 0
620 548 0
-621 -603 0
621 603 0
-622 -604 0
622 604 0
-623 -551 0
623 551 0
-624 -606 0
624 606 0
-625 -607 0
625 607 0
-626 -609 0
626 609 0
-627 -554 0
627 554 0
-628 -610 0
628 610 0
-629 -612 0
629 612 0
-630 -557 0
630 557 0
-631 -613 0
631 613 0
-632 -615 0
632 615 0
-633 -578 0
633 578 0
-634 -616 0
634 616 0
-635 -618 0
635 618 0
-636 -581 0
636 581 0
613 -637 0
622 -637 0
-613 -622 637 0
615 -638 0
622 -638 0
-615 -622 638 0
-639 -584 0
639 584 0
616 -640 0
625 -640 0
-616 -625 640 0
618 -641 0
625 -641 0
-618 -625 641 0
-642 -587 0
642 587 0
601 -643 0
628 -643 0
-601 -628 643 0
610 -644 0
628 -644 0
-610 -628 644 0
-645 -590 0
645 590 0
601 -646 0
629 -646 0
-601 -629 646 0
629 -647 0
610 -647 0
-629 -610 647 0
-648 -593 0
648 593 0
629 -649 0
612 -649 0
-629 -612 649 0
604 -650 0
631 -650 0
-604 -631 650 0
614 -651 0
560 -651 0
-614 -560 651 0
631 -652 0
613 -652 0
-631 -613 652 0
615 -653 0
631 -653 0
-615 -631 653 0
563 -654 0
617 -654 0
-563 -617 654 0
604 -655 0
632 -655 0
-604 -632 655 0
613 -656 0
632 -656 0
-613 -632 656 0
620 -657 0
566 -657 0
-620 -566 657 0
615 -658 0
632 -658 0
-615 -632 658 0
607 -659 0
634 -659 0
-607 -634 659 0
623 -660 0
569 -660 0
-623 -569 660 0
616 -661 0
634 -661 0
-616 -634 661 0
618 -662 0
634 -662 0
-618 -634 662 0
627 -663 0
572 -663 0
-627 -572 663 0
607 -664 0
635 -664 0
-607 -635 664 0
616 -665 0
635 -665 0
-616 -635 665 0
630 -666 0
575 -666 0
-630 -575 666 0
618 -667 0
635 -667 0
-618 -635 667 0
-668 -637 0
668 637 0
596 -669 0
633 -669 0
-596 -633 669 0
-670 -638 0
670 638 0
-671 -640 0
671 640 0
599 -672 0
636 -672 0
-599 -636 672 0
-673 -641 0
673 641 0
-674 -650 0
674 650 0
602 -675 0
639 -675 0
-602 -639 675 0
-676 -652 0
676 652 0
-677 -653 0
677 653 0
605 -678 0
642 -678 0
-605 -642 678 0
-679 -655 0
679 655 0
-680 -656 0
680 656 0
645 -681 0
608 -681 0
-645 -608 681 0
-682 -658 0
682 658 0
-683 -659 0
683 659 0
611 -684 0
648 -684 0
-611 -648 684 0
-685 -661 0
685 661 0
-686 -662 0
686 662 0
-687 -651 0
687 651 0
-688 -664 0
688 664 0
-689 -665 0
689 665 0
-690 -654 0
690 654 0
-691 -667 0
691 667 0
674 -692 0
668 -692 0
-674 -668 692 0
-693 -657 0
693 657 0
670 -694 0
679 -694 0
-670 -679 694 0
677 -695 0
680 -695 0
-677 -680 695 0
-696 -660 0
696 660 0
671 -697 0
683 -697 0
-671 -683 697 0
688 -698 0
673 -698 0
-688 -673 698 0
-699 -663 0
699 663 0
686 -700 0
689 -700 0
-686 -689 700 0
697 -701 0
650 -701 0
-697 -650 701 0
-702 -666 0
702 666 0
697 -703 0
643 -703 0
-697 -643 703 0
652 -704 0
685 -704 0
-652 -685 704 0
-705 -669 0
705 669 0
685 -706 0
644 -706 0
-685 -644 706 0
655 -707 0
698 -707 0
-655 -698 707 0
-708 -672 0
708 672 0
646 -709 0
698 -709 0
-646 -698 709 0
656 -710 0
700 -710 0
-656 -700 710 0
-711 -675 0
711 675 0
647 -712 0
700 -712 0
-647 -700 712 0
691 -713 0
658 -713 0
-691 -658 713 0
-714 -678 0
714 678 0
691 -715 0
649 -715 0
-691 -649 715 0
-716 -701 0
716 701 0
-717 -681 0
717 681 0
692 -718 0
703 -718 0
-692 -703 718 0
-719 -704 0
719 704 0
-720 -684 0
720 684 0
706 -721 0
676 -721 0
-706 -676 721 0
-722 -707 0
722 707 0
669 -723 0
696 -723 0
-669 -696 723 0
694 -724 0
709 -724 0
-694 -709 724 0
-725 -710 0
725 710 0
699 -726 0
672 -726 0
-699 -672 726 0
695 -727 0
712 -727 0
-695 -712 727 0
-728 -713 0
728 713 0
675 -729 0
702 -729 0
-675 -702 729 0
682 -730 0
715 -730 0
-682 -715 730 0
716 -731 0
683 -731 0
-716 -683 731 0
708 -732 0
663 -732 0
-708 -663 732 0
-733 -718 0
733 718 0
719 -734 0
685 -734 0
-719 -685 734 0
666 -735 0
711 -735 0
-666 -711 735 0
-736 -721 0
736 721 0
688 -737 0
722 -737 0
-688 -722 737 0
-738 -726 0
738 726 0
-739 -724 0
739 724 0
725 -740 0
689 -740 0
-725 -689 740 0
-741 -729 0
741 729 0
-742 -727 0
742 727 0
728 -743 0
691 -743 0
-728 -691 743 0
-744 -732 0
744 732 0
-745 -730 0
745 730 0
731 -746 0
733 -746 0
-731 -733 746 0
-747 -735 0
747 735 0
734 -748 0
736 -748 0
-734 -736 748 0
737 -749 0
739 -749 0
-737 -739 749 0
738 -750 0
744 -750 0
-738 -744 750 0
742 -751 0
740 -751 0
-742 -740 751 0
745 -752 0
743 -752 0
-745 -743 752 0
741 -753 0
747 -753 0
-741 -747 753 0
-754 -746 0
754 746 0
-755 -748 0
755 748 0
753 -756 0
726 -756 0
-753 -726 756 0
-757 -749 0
757 749 0
-758 -751 0
758 751 0
753 -759 0
723 -759 0
-753 -723 759 0
-760 -752 0
760 752 0
755 -761 0
754 -761 0
-755 -754 761 0
-762 -756 0
762 756 0
-763 -761 0
763 761 0
754 -764 0
763 -764 0
-754 -763 764 0
750 -765 0
759 -765 0
-750 -759 765 0
-766 -764 0
766 764 0
763 -767 0
766 -767 0
-763 -766 767 0
762 -768 0
741 -768 0
-762 -741 768 0
767 -769 0
757 -769 0
-767 -757 769 0
-770 -767 0
770 767 0
-771 -765 0
771 765 0
-772 -769 0
772 769 0
772 -773 0
770 -773 0
-772 -770 773 0
771 -774 0
768 -774 0
-771 -768 774 0
772 -775 0
773 -775 0
-772 -773 775 0
775 -776 0
758 -776 0
-775 -758 776 0
-777 -774 0
777 774 0
-778 -776 0
778 776 0
778 -779 0
773 -779 0
-778 -773 779 0
774 -780 0
696 -780 0
-774 -696 780 0
778 -781 0
769 -781 0
-778 -769 781 0
-782 -779 0
782 779 0
774 -783 0
699 -783 0
-774 -699 783 0
-784 -781 0
784 781 0
784 -785 0
778 -785 0
-784 -778 785 0
774 -786 0
702 -786 0
-774 -702 786 0
-787 -785 0
787 785 0
787 -788 0
782 -788 0
-787 -782 788 0
774 -789 0
705 -789 0
-774 -705 789 0
760 -790 0
788 -790 0
-760 -788 790 0
-791 -790 0
791 790 0
774 -792 0
708 -792 0
-774 -708 792 0
791 -793 0
779 -793 0
-791 -779 793 0
791 -794 0
787 -794 0
-791 -787 794 0
774 -795 0
711 -795 0
-774 -711 795 0
-796 -793 0
796 793 0
-797 -794 0
797 794 0
777 -798 0
705 -798 0
-777 -705 798 0
791 -799 0
797 -799 0
-791 -797 799 0
793 -800 0
799 -800 0
-793 -799 800 0
777 -801 0
708 -801 0
-777 -708 801 0
-802 -799 0
802 799 0
628 -803 0
800 -803 0
-628 -800 803 0
777 -804 0
711 -804 0
-777 -711 804 0
-805 -800 0
805 800 0
631 -806 0
800 -806 0
-631 -800 806 0
777 -807 0
696 -807 0
-777 -696 807 0
634 -808 0
800 -808 0
-634 -800 808 0
619 -809 0
800 -809 0
-619 -800 809 0
777 -810 0
699 -810 0
-777 -699 810 0
622 -811 0
800 -811 0
-622 -800 811 0
800 -812 0
625 -812 0
-800 -625 812 0
777 -813 0
702 -813 0
-777 -702 813 0
796 -814 0
802 -814 0
-796 -802 814 0
-815 -803 0
815 803 0
-816 -780 0
816 780 0
805 -817 0
619 -817 0
-805 -619 817 0
805 -818 0
622 -818 0
-805 -622 818 0
-819 -783 0
819 783 0
805 -820 0
625 -820 0
-805 -625 820 0
805 -821 0
628 -821 0
-805 -628 821 0
-822 -786 0
822 786 0
805 -823 0
631 -823 0
-805 -631 823 0
805 -824 0
634 -824 0
-805 -634 824 0
-825 -789 0
825 789 0
-826 -806 0
826 806 0
-827 -808 0
827 808 0
-828 -792 0
828 792 0
-829 -809 0
829 809 0
-830 -811 0
830 811 0
-831 -795 0
831 795 0
-832 -812 0
832 812 0
-833 -814 0
833 814 0
-834 -798 0
834 798 0
629 -835 0
814 -835 0
-629 -814 835 0
814 -836 0
632 -836 0
-814 -632 836 0
-837 -801 0
837 801 0
635 -838 0
814 -838 0
-635 -814 838 0
-839 -817 0
839 817 0
-840 -818 0
840 818 0
-841 -804 0
841 804 0
-842 -820 0
842 820 0
-843 -821 0
843 821 0
-844 -807 0
844 807 0
-845 -823 0
845 823 0
-846 -824 0
846 824 0
-847 -810 0
847 810 0
629 -848 0
833 -848 0
-629 -833 848 0
833 -849 0
632 -849 0
-833 -632 849 0
-850 -813 0
850 813 0
635 -851 0
833 -851 0
-635 -833 851 0
-852 -835 0
852 835 0
834 -853 0
816 -853 0
-834 -816 853 0
-854 -836 0
854 836 0
-855 -838 0
855 838 0
837 -856 0
819 -856 0
-837 -819 856 0
815 -857 0
839 -857 0
-815 -839 857 0
826 -858 0
840 -858 0
-826 -840 858 0
822 -859 0
841 -859 0
-822 -841 859 0
827 -860 0
842 -860 0
-827 -842 860 0
829 -861 0
843 -861 0
-829 -843 861 0
825 -862 0
844 -862 0
-825 -844 862 0
830 -863 0
845 -863 0
-830 -845 863 0
832 -864 0
846 -864 0
-832 -846 864 0
847 -865 0
828 -865 0
-847 -828 865 0
-866 -848 0
866 848 0
-867 -849 0
867 849 0
831 -868 0
850 -868 0
-831 -850 868 0
-869 -851 0
869 851 0
-870 -857 0
870 857 0
853 -871 0
687 -871 0
-853 -687 871 0
-872 -858 0
872 858 0
-873 -860 0
873 860 0
-874 -853 0
874 853 0
-875 -861 0
875 861 0
-876 -863 0
876 863 0
690 -877 0
856 -877 0
-690 -856 877 0
-878 -864 0
878 864 0
814 -879 0
870 -879 0
-814 -870 879 0
-880 -856 0
880 856 0
870 -881 0
833 -881 0
-870 -833 881 0
814 -882 0
872 -882 0
-814 -872 882 0
693 -883 0
859 -883 0
-693 -859 883 0
833 -884 0
872 -884 0
-833 -872 884 0
873 -885 0
814 -885 0
-873 -814 885 0
-886 -859 0
886 859 0
873 -887 0
833 -887 0
-873 -833 887 0
875 -888 0
833 -888 0
-875 -833 888 0
-889 -862 0
889 862 0
814 -890 0
875 -890 0
-814 -875 890 0
876 -891 0
833 -891 0
-876 -833 891 0
-892 -865 0
892 865 0
876 -893 0
814 -893 0
-876 -814 893 0
878 -894 0
833 -894 0
-878 -833 894 0
-895 -868 0
895 868 0
814 -896 0
878 -896 0
-814 -878 896 0
-897 -879 0
897 879 0
654 -898 0
880 -898 0
-654 -880 898 0
-899 -881 0
899 881 0
-900 -882 0
900 882 0
-901 -877 0
901 877 0
-902 -884 0
902 884 0
-903 -885 0
903 885 0
-904 -883 0
904 883 0
-905 -887 0
905 887 0
-906 -888 0
906 888 0
657 -907 0
886 -907 0
-657 -886 907 0
-908 -890 0
908 890 0
-909 -891 0
909 891 0
-910 -898 0
910 898 0
-911 -893 0
911 893 0
-912 -894 0
912 894 0
-913 -907 0
913 907 0
-914 -896 0
914 896 0
897 -915 0
866 -915 0
-897 -866 915 0
901 -916 0
910 -916 0
-901 -910 916 0
852 -917 0
899 -917 0
-852 -899 917 0
867 -918 0
900 -918 0
-867 -900 918 0
904 -919 0
913 -919 0
-904 -913 919 0
902 -920 0
854 -920 0
-902 -854 920 0
903 -921 0
869 -921 0
-903 -869 921 0
919 -922 0
877 -922 0
-919 -877 922 0
855 -923 0
905 -923 0
-855 -905 923 0
906 -924 0
908 -924 0
-906 -908 924 0
919 -925 0
871 -925 0
-919 -871 925 0
911 -926 0
909 -926 0
-911 -909 926 0
912 -927 0
914 -927 0
-912 -914 927 0
-928 -922 0
928 922 0
-929 -915 0
929 915 0
-930 -917 0
930 917 0
925 -931 0
916 -931 0
-925 -916 931 0
-932 -918 0
932 918 0
-933 -920 0
933 920 0
904 -934 0
928 -934 0
-904 -928 934 0
-935 -921 0
935 921 0
-936 -923 0
936 923 0
-937 -931 0
937 931 0
-938 -924 0
938 924 0
-939 -926 0
939 926 0
937 -940 0
934 -940 0
-937 -934 940 0
-941 -927 0
941 927 0
926 -942 0
932 -942 0
-926 -932 942 0
-943 -940 0
943 940 0
935 -944 0
927 -944 0
-935 -927 944 0
938 -945 0
915 -945 0
-938 -915 945 0
940 -946 0
687 -946 0
-940 -687 946 0
938 -947 0
924 -947 0
-938 -924 947 0
939 -948 0
918 -948 0
-939 -918 948 0
690 -949 0
940 -949 0
-690 -940 949 0
926 -950 0
939 -950 0
-926 -939 950 0
941 -951 0
921 -951 0
-941 -921 951 0
693 -952 0
940 -952 0
-693 -940 952 0
941 -953 0
927 -953 0
-941 -927 953 0
-954 -942 0
954 942 0
940 -955 0
874 -955 0
-940 -874 955 0
-956 -944 0
956 944 0
-957 -948 0
957 948 0
940 -958 0
880 -958 0
-940 -880 958 0
-959 -950 0
959 950 0
-960 -951 0
960 951 0
940 -961 0
886 -961 0
-940 -886 961 0
-962 -953 0
962 953 0
954 -963 0
957 -963 0
-954 -957 963 0
943 -964 0
874 -964 0
-943 -874 964 0
956 -965 0
960 -965 0
-956 -960 965 0
965 -966 0
948 -966 0
-965 -948 966 0
943 -967 0
880 -967 0
-943 -880 967 0
965 -968 0
945 -968 0
-965 -945 968 0
962 -969 0
950 -969 0
-962 -950 969 0
943 -970 0
886 -970 0
-943 -886 970 0
947 -971 0
962 -971 0
-947 -962 971 0
-972 -966 0
972 966 0
687 -973 0
943 -973 0
-687 -943 973 0
963 -974 0
968 -974 0
-963 -968 974 0
-975 -969 0
975 969 0
690 -976 0
943 -976 0
-690 -943 976 0
971 -977 0
959 -977 0
-971 -959 977 0
972 -978 0
960 -978 0
-972 -960 978 0
693 -979 0
943 -979 0
-693 -943 979 0
-980 -974 0
980 974 0
975 -981 0
962 -981 0
-975 -962 981 0
-982 -946 0
982 946 0
-983 -977 0
983 977 0
978 -984 0
980 -984 0
-978 -980 984 0
-985 -949 0
985 949 0
983 -986 0
981 -986 0
-983 -981 986 0
-987 -984 0
987 984 0
-988 -952 0
988 952 0
-989 -986 0
989 986 0
987 -990 0
989 -990 0
-987 -989 990 0
-991 -955 0
991 955 0
-992 -990 0
992 990 0
992 -993 0
987 -993 0
-992 -987 993 0
-994 -958 0
994 958 0
-995 -993 0
995 993 0
992 -996 0
995 -996 0
-992 -995 996 0
-997 -961 0
997 961 0
938 -998 0
996 -998 0
-938 -996 998 0
-999 -996 0
999 996 0
-1000 -964 0
1000 964 0
939 -1001 0
996 -1001 0
-939 -996 1001 0
941 -1002 0
996 -1002 0
-941 -996 1002 0
-1003 -967 0
1003 967 0
929 -1004 0
996 -1004 0
-929 -996 1004 0
932 -1005 0
996 -1005 0
-932 -996 1005 0
-1006 -970 0
1006 970 0
935 -1007 0
996 -1007 0
-935 -996 1007 0
-1008 -998 0
1008 998 0
-1009 -973 0
1009 973 0
929 -1010 0
999 -1010 0
-929 -999 1010 0
932 -1011 0
999 -1011 0
-932 -999 1011 0
-1012 -976 0
1012 976 0
935 -1013 0
999 -1013 0
-935 -999 1013 0
938 -1014 0
999 -1014 0
-938 -999 1014 0
-1015 -979 0
1015 979 0
939 -1016 0
999 -1016 0
-939 -999 1016 0
941 -1017 0
999 -1017 0
-941 -999 1017 0
982 -1018 0
1000 -1018 0
-982 -1000 1018 0
-1019 -1001 0
1019 1001 0
-1020 -1002 0
1020 1002 0
985 -1021 0
1003 -1021 0
-985 -1003 1021 0
-1022 -1004 0
1022 1004 0
-1023 -1005 0
1023 1005 0
1006 -1024 0
988 -1024 0
-1006 -988 1024 0
-1025 -1007 0
1025 1007 0
-1026 -1010 0
1026 1010 0
991 -1027 0
1009 -1027 0
-991 -1009 1027 0
-1028 -1011 0
1028 1011 0
-1029 -1013 0
1029 1013 0
994 -1030 0
1012 -1030 0
-994 -1012 1030 0
-1031 -1014 0
1031 1014 0
-1032 -1016 0
1032 1016 0
997 -1033 0
1015 -1033 0
-997 -1015 1033 0
-1034 -1017 0
1034 1017 0
1026 -1035 0
1008 -1035 0
-1026 -1008 1035 0
-1036 -1018 0
1036 1018 0
1028 -1037 0
1019 -1037 0
-1028 -1019 1037 0
1020 -1038 0
1029 -1038 0
-1020 -1029 1038 0
-1039 -1021 0
1039 1021 0
1031 -1040 0
1022 -1040 0
-1031 -1022 1040 0
1032 -1041 0
1023 -1041 0
-1032 -1023 1041 0
-1042 -1024 0
1042 1024 0
1034 -1043 0
1025 -1043 0
-1034 -1025 1043 0
-1044 -1035 0
1044 1035 0
-1045 -1027 0
1045 1027 0
-1046 -1037 0
1046 1037 0
-1047 -1038 0
1047 1038 0
-1048 -1030 0
1048 1030 0
-1049 -1040 0
1049 1040 0
-1050 -1041 0
1050 1041 0
-1051 -1043 0
1051 1043 0
-1052 -1033 0
1052 1033 0
-1036 -1044 -1053 0
1036 1044 -1053 0
1036 -1044 1053 0
-1036 1044 1053 0
-1039 -1046 -1054 0
1039 1046 -1054 0
1039 -1046 1054 0
-1039 1046 1054 0
-1042 -1047 -1055 0
1042 1047 -1055 0
1042 -1047 1055 0
-1042 1047 1055 0
-1045 -1049 -1056 0
1045 1049 -1056 0
1045 -1049 1056 0
-1045 1049 1056 0
-1048 -1050 -1057 0
1048 1050 -1057 0
1048 -1050 1057 0
-1048 1050 1057 0
-1052 -1051 -1058 0
1052 1051 -1058 0
1052 -1051 1058 0
-1052 1051 1058 0
-889 -930 -1059 0
889 930 -1059 0
889 -930 1059 0
-889 930 1059 0
-892 -933 -1060 0
892 933 -1060 0
892 -933 1060 0
-892 933 1060 0
-895 -936 -1061 0
895 936 -1061 0
895 -936 1061 0
-895 936 1061 0
-714 -621 -1062 0
714 621 -1062 0
714 -621 1062 0
-714 621 1062 0
-717 -624 -1063 0
717 624 -1063 0
717 -624 1063 0
-717 624 1063 0
-720 -626 -1064 0
720 626 -1064 0
720 -626 1064 0
-720 626 1064 0
1053 1054 1055 1056 1057 1058 1059 1060 1061 1062 1063 1064 0
